81 1473
1 3 7 8 9 10 19 20 23 24 30 34 35 36 38 40 42 43 51 55 56 57 58 59 61 62 65 66 68 70 74 75 76
0 2 3 10 12 17 20 23 26 28 29 32 33 35 36 38 40 41 43 44 45 47 49 51 53 54 57 58 60 64 65 66 68 70 74 76 77
1 4 7 9 11 12 13 15 16 20 23 26 28 39 40 41 42 46 49 50 51 53 57 61 63 64 65 66 67 70 71 79
0 1 4 5 12 13 17 18 22 25 26 27 29 30 35 36 37 44 49 52 53 57 58 61 64 65 67 69 71 72 74 76 79 80
2 3 5 6 9 14 15 16 19 21 23 26 29 30 31 35 37 38 39 40 41 43 45 46 48 51 53 54 56 57 58 60 61 63 65 67 71 72 73 77 80
3 4 6 7 8 9 10 11 13 19 21 24 25 30 37 39 43 44 45 46 48 52 53 54 56 57 59 61 62 64 65 68 69 70 71 73 74 75 76 77 78 80
4 5 8 12 13 15 17 18 19 22 24 26 33 35 37 38 42 44 47 49 50 52 58 60 63 64 66 68 71 73 74 77 78
0 2 5 8 11 12 13 15 17 20 21 22 23 26 27 31 32 37 39 42 43 44 46 51 52 55 57 59 61 62 72 73 76 78 79 80
0 5 6 7 9 10 11 12 14 21 22 23 25 26 29 30 34 35 36 37 40 42 43 47 48 51 55 59 61 62 63 64 66 67 68 69 73 75 79 80
0 2 4 5 8 11 12 17 19 21 24 25 27 31 33 35 38 39 42 43 44 46 47 49 52 54 56 57 58 61 62 64 72 73 74 76
0 1 5 8 11 13 14 16 19 20 23 24 27 29 32 37 38 39 42 43 47 49 50 54 55 57 58 63 64 67 68 69 76 78 79 80
2 5 7 8 9 10 12 14 15 17 19 21 22 26 27 29 30 33 35 38 40 43 44 45 48 52 53 59 60 61 64 66 69 71 73 74 76 79 80
1 2 3 6 7 8 9 11 14 18 19 22 24 29 30 31 33 35 36 37 38 41 42 45 46 47 48 51 52 53 55 56 58 59 60 61 68 72 73 77 78
2 3 5 6 7 10 15 16 18 19 20 24 28 29 30 31 32 33 34 35 36 38 42 49 53 57 60 61 63 65 66 67 69 70 74 76 79 80
4 8 10 11 12 15 22 23 24 26 31 32 38 40 43 46 47 50 51 52 53 54 55 56 57 60 61 63 66 67 69 70 71 72 73 74 76 77 80
2 4 6 7 11 13 14 16 17 21 22 23 29 30 32 34 35 37 38 39 40 47 50 51 52 60 61 64 66 68 72 79
2 4 10 13 15 18 19 21 22 23 25 29 30 35 36 37 42 44 45 47 48 51 56 59 60 61 63 64 66 69 70 73 80
1 3 6 7 9 11 15 18 19 23 24 30 31 32 35 37 38 39 42 48 50 53 61 63 64 67 68 69 70 71 74 76 79 80
3 6 12 13 16 17 19 21 22 23 24 27 28 31 32 36 38 39 40 42 43 47 48 49 50 51 52 57 59 63 65 66 69 70 75 79 80
0 4 5 6 9 10 11 12 13 16 17 18 21 22 24 26 28 29 38 43 45 47 52 53 55 56 58 60 62 63 66 67 70 72 73 75 76 80
0 1 2 7 10 13 21 22 25 27 28 34 35 48 49 50 51 55 59 60 61 63 64 65 66 67 68 69 70 72 76 77 79 80
4 5 7 8 9 11 15 16 18 19 20 22 23 24 27 28 33 36 40 43 44 47 48 58 60 61 62 63 70 72 77 80
3 6 7 8 11 12 14 15 16 18 19 20 21 25 28 30 31 35 36 46 49 50 55 59 61 62 67 68 69 72 73 75 76 77 78 79 80
0 1 2 4 7 8 10 14 15 16 17 18 21 24 25 26 28 33 34 38 41 43 44 45 48 49 50 52 56 58 60 63 67 68 70 74 77 79
0 5 6 9 10 12 13 14 17 18 19 21 23 29 31 32 33 34 35 36 40 45 47 49 51 55 58 61 63 65 66 67 68 69 70 71 72 74 76 80
3 5 8 9 16 20 22 23 28 29 32 33 36 39 40 43 48 53 54 55 58 60 61 62 64 66 68 69 70 71 73 74 76 77
1 2 3 4 6 7 8 11 14 19 23 29 30 31 32 33 36 37 38 41 43 44 48 55 57 58 59 61 62 64 66 67 70 74 75 76 79 80
3 7 9 10 11 18 20 21 28 30 33 35 36 37 39 43 44 48 56 57 59 60 61 62 63 66 71 74 75 76 77 78
1 2 13 18 19 20 21 22 23 25 27 29 31 32 33 35 36 37 39 40 43 44 46 47 48 49 50 55 56 59 60 61 64 65 66 69 71 73 75 77
1 3 4 8 10 11 12 13 15 16 19 24 25 26 28 31 32 33 35 38 42 44 48 50 53 55 58 59 60 61 65 69 73 74 75 76 78 80
0 3 4 5 8 11 12 13 15 16 17 22 26 27 31 32 33 34 36 37 38 40 43 45 46 47 49 57 59 60 65 69 71 72 74 75 78 79
4 7 9 12 13 14 17 18 22 24 26 28 29 30 32 33 37 42 44 50 51 52 53 54 56 57 59 60 61 66 70 71 73 74 77 78 79 80
1 7 10 13 14 15 17 18 24 25 26 28 29 30 31 34 37 38 39 42 45 47 48 51 52 53 54 56 58 59 60 63 68 71 72 74 75 78 79
1 6 9 11 12 13 21 23 24 25 26 27 28 29 30 31 34 36 37 39 40 45 49 53 58 62 64 68 69 71 75 76 77 78 80
0 8 13 15 20 23 24 30 32 33 35 38 41 42 45 46 48 49 52 54 56 57 60 62 63 64 65 66 69 70 71 74 75 76 79
0 1 3 4 6 8 9 11 12 13 15 16 17 20 22 24 27 28 29 34 36 38 41 42 46 47 52 54 55 58 60 62 63 64 65 70 74 75 78
0 1 3 8 12 13 16 18 21 22 24 25 26 27 28 30 33 35 37 38 39 40 42 44 47 49 51 52 55 61 62 63 64 65 66 67 68 69 73 74 77 78 79
3 4 5 6 7 8 10 12 15 16 17 26 27 28 30 31 32 33 36 39 40 48 49 61 63 67 68 71 73 75 77 80
0 1 4 6 9 10 11 12 13 14 15 17 18 19 23 26 29 30 32 34 35 36 40 41 45 49 50 51 52 53 54 55 56 57 61 63 64 66 68 69 74 76
2 4 5 7 9 10 15 17 18 25 27 28 32 33 36 37 43 45 49 51 58 61 62 66 67 68 69 71 73 74 76
0 1 2 4 8 11 14 15 18 21 24 25 28 30 33 36 37 38 42 43 45 49 50 56 57 58 60 62 63 64 69 71 73 74
1 2 4 12 23 26 34 35 38 42 43 44 47 48 49 52 55 57 58 60 61 64 65 67 70 71 72 74 78 79
0 2 6 7 8 9 10 12 13 16 17 18 29 31 32 34 35 36 40 41 43 44 45 48 50 53 55 57 58 61 62 63 66 70 73 74 75 77 78 79
0 1 4 5 7 8 9 10 11 14 18 19 21 23 25 26 27 28 30 39 40 41 42 44 47 50 51 55 56 59 60 61 65 66 72 73 74 75 76 78 80
1 3 5 6 7 9 11 16 21 23 26 27 28 29 31 36 41 42 43 48 49 51 55 58 59 60 62 67 72 75 77 78 79
1 4 5 11 12 16 19 23 24 30 32 33 34 38 39 40 42 47 49 50 53 54 55 58 60 63 65 66 68 72 73 75 76 77 79 80
2 4 5 7 9 12 14 22 28 30 34 35 53 56 57 58 60 64 65 66 72 74 78 79
1 6 8 9 10 12 14 15 16 18 19 21 24 28 30 32 35 36 41 43 45 48 49 51 53 55 56 58 65 66 67 68 71 73 77 78
4 5 8 11 12 16 17 18 20 21 23 25 26 27 28 29 32 34 37 41 42 44 47 53 56 58 59 60 64 65 66 67 70 71 73 75 77 80
1 2 3 6 9 10 13 18 20 22 23 24 28 30 33 34 36 37 38 39 40 41 44 45 47 52 53 59 60 62 63 64 65 72 73 75 77
2 6 10 14 15 17 18 20 22 23 28 29 31 38 40 42 43 45 51 52 56 57 59 60 65 66 69 70 71 73 74 75 76 80
0 1 2 4 7 8 12 14 15 16 18 20 24 31 32 36 38 39 43 44 47 50 54 57 58 59 61 62 63 66 67 68 69 74 75 77 80
3 5 6 7 9 11 12 14 15 18 19 23 31 32 34 35 36 38 41 49 50 55 56 59 61 64 65 68 74 76
1 2 3 4 5 11 12 13 14 17 19 25 29 31 32 33 38 42 45 46 47 48 49 61 65 67 68 69 70 71 72 77 78 80
1 4 5 9 10 14 25 31 32 34 35 38 45 51 55 56 57 61 71 72 73 76
0 7 8 10 12 14 19 20 22 24 25 26 28 29 35 36 38 41 42 43 44 45 47 52 54 56 60 62 68 70 72 78
0 4 5 9 12 14 16 19 23 27 28 31 32 34 38 40 43 46 47 48 50 52 54 55 58 61 63 64 65 66 70 71 75 76 79
0 1 2 3 4 5 7 9 10 13 14 18 26 27 30 31 34 38 40 41 42 46 50 51 54 58 59 61 64 65 66 73 77 80
0 1 3 4 6 9 10 12 19 21 23 24 25 26 29 32 33 35 39 40 41 42 44 45 46 47 48 51 56 57 61 63 64 66 67 69 71 72 73 76 78 79 80
0 5 7 8 11 12 16 18 20 22 26 27 28 29 30 31 32 43 44 48 49 50 51 52 57 60 65 66 69 70 72 74 76 79
1 4 6 11 12 13 14 15 16 19 20 21 23 25 27 28 29 30 31 32 34 35 40 41 43 44 45 46 48 49 50 55 59 61 63 64 68 70 71 74 75 76 77 78 80
0 2 3 4 5 7 8 9 11 12 13 14 15 16 17 20 21 22 24 25 26 27 28 29 31 36 37 38 39 41 42 43 51 52 53 54 56 57 58 60 62 64 66 67 69 72 74 77 78
0 5 7 8 9 19 21 22 25 26 27 33 34 35 36 39 40 42 44 49 51 55 61 63 69 70 72 73 74 75 76 79 80
2 4 6 8 10 13 14 16 17 18 19 20 21 23 24 27 32 34 35 36 37 38 40 42 45 49 51 56 58 60 62 68 69 76 78 79
1 2 3 5 6 8 9 10 11 15 16 17 20 25 26 28 33 34 35 36 38 40 41 46 48 49 52 56 57 58 60 61 67 69 70 72 73 77 78 80
0 1 2 3 4 5 13 18 20 24 28 29 30 34 35 36 41 43 45 46 47 48 49 50 52 53 56 57 59 67 68 70 73 76 77 79
0 1 2 6 8 11 13 14 15 16 18 19 20 24 25 26 27 28 31 34 36 38 39 42 43 45 46 47 48 50 51 56 57 58 59 61 70 72 74 75 77
2 3 4 8 10 13 14 17 19 20 22 23 24 26 36 37 39 41 44 47 48 51 53 58 61 64 65 68 73 74 77
0 1 5 6 8 10 12 15 17 20 22 23 24 25 32 33 36 37 38 39 45 47 51 52 53 55 60 63 65 67 74 75 76 77 80
3 5 8 10 11 13 14 16 17 18 20 22 24 25 28 29 30 33 34 36 38 39 40 50 51 53 58 59 61 62 63 64 70 74 75 79 80
0 1 2 5 13 14 16 17 18 19 20 21 23 24 25 26 31 34 35 41 42 48 50 53 55 56 59 60 62 64 65 66 69 71 76 79
2 3 4 5 6 11 14 17 24 25 27 28 30 31 32 33 34 37 39 40 41 47 48 50 53 54 56 58 60 70 75 78 79 80
3 4 7 9 12 14 15 19 20 21 22 24 30 32 41 43 44 45 46 49 53 54 55 58 59 61 62 64 66 74 76 78 79 80
4 5 6 7 8 9 11 12 14 16 19 22 25 28 29 31 36 37 39 40 42 43 45 47 48 49 50 54 57 58 62 64 65 67 74 75 76 77 78
0 1 3 5 6 9 11 13 14 17 23 24 25 26 27 29 30 31 32 34 35 36 38 39 40 41 42 43 46 50 51 52 59 60 61 62 66 67 68 69 72 73 76 79 80
0 5 8 18 19 22 26 27 28 29 30 32 33 34 35 37 42 43 44 45 48 49 50 51 56 60 62 66 68 69 71 73 76 78
0 1 3 5 7 9 10 11 13 14 17 19 20 22 24 25 26 27 29 33 34 38 39 43 45 50 52 54 56 58 59 60 62 63 65 68 70 72 73 74 75 79 80
1 4 5 6 12 14 20 21 22 23 25 27 28 31 33 36 37 42 44 45 47 48 49 51 53 57 60 61 64 65 66 67 68 73 78 80
5 6 7 10 12 22 27 29 30 31 32 33 35 36 41 42 43 44 46 47 53 55 58 60 61 63 64 71 72 73 75 77 79
2 3 7 8 10 11 13 15 17 18 20 22 23 26 30 31 32 34 36 41 42 44 45 46 56 58 59 62 63 65 69 70 71 72 74 76 78 80
3 4 5 7 8 10 11 13 14 16 17 18 19 20 21 22 24 26 29 31 33 37 43 45 48 50 51 53 57 58 60 62 64 68 69 71 72 74 76 77 79
